
c turning on binary mode checking

c parsing input formula with 3656 variables and 22538 clauses

c finished parsing, read 85837 bytes from proof file

c detected empty clause; start verification via backward checking

c 56 of 22538 clauses in core                            

c 15 of 1973 lemmas in core using 86 resolution steps

c 0 RAT lemmas in core; 9 redundant literals in core lemmas

s VERIFIED

c verification time: 0.060 seconds
